60
1 0 59
2 0 78
2 1 4
3 0 27
3 1 1
3 2 65
4 0 8
4 1 81
4 2 64
4 3 6
5 0 53
5 1 84
5 2 12
5 3 14
5 4 47
6 0 65
6 1 91
6 2 22
6 3 93
6 4 61
6 5 60
7 0 87
7 1 28
7 2 67
7 3 57
7 4 25
7 5 55
7 6 42
8 0 61
8 1 28
8 2 2
8 3 62
8 4 36
8 5 42
8 6 67
8 7 64
9 0 94
9 1 93
9 2 22
9 3 43
9 4 95
9 5 2
9 6 86
9 7 90
9 8 73
10 0 19
10 1 95
10 2 73
10 3 63
10 4 68
10 5 24
10 6 12
10 7 65
10 8 84
10 9 42
11 0 93
11 1 68
11 2 80
11 3 6
11 4 22
11 5 18
11 6 90
11 7 23
11 8 18
11 9 10
11 10 52
12 0 28
12 1 96
12 2 35
12 3 42
12 4 79
12 5 81
12 6 6
12 7 79
12 8 43
12 9 62
12 10 52
12 11 46
13 0 37
13 1 76
13 2 59
13 3 6
13 4 48
13 5 78
13 6 71
13 7 5
13 8 32
13 9 42
13 10 14
13 11 98
13 12 97
14 0 87
14 1 87
14 2 34
14 3 85
14 4 43
14 5 31
14 6 76
14 7 21
14 8 85
14 9 78
14 10 69
14 11 8
14 12 99
14 13 39
15 0 55
15 1 68
15 2 72
15 3 85
15 4 5
15 5 63
15 6 7
15 7 17
15 8 39
15 9 47
15 10 11
15 11 53
15 12 15
15 13 40
15 14 8
16 0 53
16 1 37
16 2 7
16 3 67
16 4 73
16 5 7
16 6 1
16 7 55
16 8 26
16 9 17
16 10 1
16 11 59
16 12 69
16 13 59
16 14 35
16 15 21
17 0 68
17 1 89
17 2 97
17 3 92
17 4 94
17 5 94
17 6 77
17 7 3
17 8 55
17 9 28
17 10 72
17 11 98
17 12 77
17 13 28
17 14 46
17 15 79
17 16 70
18 0 19
18 1 52
18 2 62
18 3 67
18 4 66
18 5 44
18 6 48
18 7 96
18 8 51
18 9 33
18 10 51
18 11 38
18 12 63
18 13 69
18 14 30
18 15 85
18 16 28
18 17 49
19 0 34
19 1 85
19 2 35
19 3 94
19 4 49
19 5 54
19 6 26
19 7 27
19 8 3
19 9 82
19 10 44
19 11 62
19 12 71
19 13 62
19 14 72
19 15 79
19 16 82
19 17 33
19 18 13
20 0 40
20 1 31
20 2 3
20 3 70
20 4 85
20 5 40
20 6 85
20 7 40
20 8 94
20 9 12
20 10 89
20 11 42
20 12 21
20 13 92
20 14 32
20 15 24
20 16 25
20 17 14
20 18 54
20 19 24
21 0 65
21 1 5
21 2 78
21 3 90
21 4 18
21 5 73
21 6 30
21 7 71
21 8 52
21 9 88
21 10 4
21 11 42
21 12 59
21 13 69
21 14 60
21 15 22
21 16 17
21 17 90
21 18 76
21 19 98
21 20 63
22 0 94
22 1 83
22 2 68
22 3 71
22 4 80
22 5 70
22 6 59
22 7 72
22 8 95
22 9 40
22 10 86
22 11 75
22 12 41
22 13 35
22 14 63
22 15 59
22 16 84
22 17 71
22 18 75
22 19 49
22 20 36
22 21 66
23 0 71
23 1 4
23 2 26
23 3 26
23 4 50
23 5 71
23 6 96
23 7 31
23 8 32
23 9 82
23 10 84
23 11 56
23 12 50
23 13 14
23 14 78
23 15 88
23 16 92
23 17 13
23 18 56
23 19 38
23 20 97
23 21 75
23 22 44
24 0 69
24 1 72
24 2 29
24 3 58
24 4 69
24 5 72
24 6 46
24 7 10
24 8 56
24 9 92
24 10 5
24 11 100
24 12 89
24 13 37
24 14 63
24 15 15
24 16 13
24 17 71
24 18 8
24 19 13
24 20 81
24 21 77
24 22 11
24 23 64
25 0 15
25 1 63
25 2 99
25 3 68
25 4 2
25 5 96
25 6 3
25 7 87
25 8 40
25 9 71
25 10 66
25 11 40
25 12 83
25 13 16
25 14 11
25 15 71
25 16 47
25 17 5
25 18 6
25 19 72
25 20 65
25 21 41
25 22 75
25 23 19
25 24 22
26 0 11
26 1 33
26 2 79
26 3 3
26 4 31
26 5 61
26 6 63
26 7 16
26 8 42
26 9 41
26 10 53
26 11 4
26 12 22
26 13 6
26 14 19
26 15 35
26 16 8
26 17 92
26 18 11
26 19 39
26 20 70
26 21 95
26 22 93
26 23 39
26 24 61
26 25 56
27 0 39
27 1 83
27 2 41
27 3 40
27 4 24
27 5 85
27 6 59
27 7 79
27 8 79
27 9 27
27 10 16
27 11 90
27 12 84
27 13 77
27 14 72
27 15 1
27 16 20
27 17 28
27 18 51
27 19 29
27 20 11
27 21 67
27 22 62
27 23 1
27 24 25
27 25 22
27 26 46
28 0 21
28 1 3
28 2 54
28 3 2
28 4 3
28 5 57
28 6 78
28 7 73
28 8 41
28 9 37
28 10 44
28 11 74
28 12 87
28 13 58
28 14 14
28 15 11
28 16 40
28 17 59
28 18 100
28 19 6
28 20 82
28 21 9
28 22 58
28 23 40
28 24 10
28 25 94
28 26 56
28 27 83
29 0 55
29 1 50
29 2 65
29 3 45
29 4 77
29 5 25
29 6 22
29 7 4
29 8 79
29 9 86
29 10 80
29 11 72
29 12 93
29 13 98
29 14 48
29 15 9
29 16 9
29 17 46
29 18 67
29 19 100
29 20 65
29 21 88
29 22 92
29 23 50
29 24 21
29 25 31
29 26 68
29 27 66
29 28 68
30 0 97
30 1 28
30 2 34
30 3 66
30 4 12
30 5 38
30 6 99
30 7 2
30 8 18
30 9 72
30 10 14
30 11 97
30 12 23
30 13 7
30 14 17
30 15 41
30 16 13
30 17 47
30 18 48
30 19 97
30 20 98
30 21 24
30 22 22
30 23 17
30 24 74
30 25 54
30 26 2
30 27 77
30 28 7
30 29 18
31 0 65
31 1 94
31 2 94
31 3 2
31 4 31
31 5 98
31 6 33
31 7 44
31 8 10
31 9 82
31 10 17
31 11 28
31 12 92
31 13 38
31 14 48
31 15 55
31 16 63
31 17 44
31 18 4
31 19 75
31 20 49
31 21 92
31 22 37
31 23 47
31 24 3
31 25 36
31 26 69
31 27 76
31 28 97
31 29 25
31 30 11
32 0 35
32 1 75
32 2 40
32 3 36
32 4 80
32 5 84
32 6 46
32 7 70
32 8 3
32 9 92
32 10 38
32 11 75
32 12 91
32 13 54
32 14 39
32 15 63
32 16 84
32 17 91
32 18 72
32 19 43
32 20 50
32 21 83
32 22 19
32 23 92
32 24 14
32 25 3
32 26 46
32 27 11
32 28 22
32 29 40
32 30 42
32 31 7
33 0 14
33 1 76
33 2 15
33 3 2
33 4 39
33 5 36
33 6 35
33 7 59
33 8 49
33 9 9
33 10 17
33 11 2
33 12 38
33 13 8
33 14 91
33 15 33
33 16 18
33 17 41
33 18 92
33 19 96
33 20 56
33 21 77
33 22 76
33 23 40
33 24 10
33 25 54
33 26 40
33 27 69
33 28 26
33 29 53
33 30 100
33 31 96
33 32 1
34 0 31
34 1 68
34 2 29
34 3 20
34 4 8
34 5 7
34 6 55
34 7 15
34 8 20
34 9 82
34 10 6
34 11 6
34 12 99
34 13 23
34 14 26
34 15 25
34 16 56
34 17 61
34 18 60
34 19 40
34 20 54
34 21 22
34 22 47
34 23 16
34 24 100
34 25 73
34 26 76
34 27 78
34 28 13
34 29 59
34 30 50
34 31 87
34 32 26
34 33 84
35 0 62
35 1 22
35 2 35
35 3 13
35 4 70
35 5 28
35 6 16
35 7 3
35 8 34
35 9 87
35 10 46
35 11 94
35 12 53
35 13 16
35 14 25
35 15 14
35 16 10
35 17 100
35 18 71
35 19 71
35 20 8
35 21 100
35 22 40
35 23 53
35 24 77
35 25 18
35 26 94
35 27 54
35 28 54
35 29 100
35 30 8
35 31 74
35 32 88
35 33 89
35 34 7
36 0 2
36 1 16
36 2 95
36 3 62
36 4 48
36 5 14
36 6 16
36 7 88
36 8 88
36 9 12
36 10 32
36 11 18
36 12 58
36 13 31
36 14 73
36 15 63
36 16 80
36 17 88
36 18 8
36 19 66
36 20 32
36 21 67
36 22 26
36 23 6
36 24 85
36 25 52
36 26 90
36 27 32
36 28 64
36 29 79
36 30 2
36 31 13
36 32 13
36 33 47
36 34 100
36 35 39
37 0 74
37 1 92
37 2 64
37 3 16
37 4 99
37 5 24
37 6 33
37 7 31
37 8 62
37 9 67
37 10 31
37 11 82
37 12 43
37 13 63
37 14 58
37 15 5
37 16 94
37 17 30
37 18 10
37 19 36
37 20 13
37 21 80
37 22 27
37 23 96
37 24 85
37 25 33
37 26 71
37 27 78
37 28 65
37 29 95
37 30 87
37 31 80
37 32 16
37 33 77
37 34 27
37 35 24
37 36 23
38 0 78
38 1 94
38 2 26
38 3 44
38 4 56
38 5 69
38 6 38
38 7 77
38 8 57
38 9 22
38 10 59
38 11 48
38 12 82
38 13 1
38 14 90
38 15 45
38 16 12
38 17 87
38 18 85
38 19 67
38 20 15
38 21 21
38 22 6
38 23 48
38 24 14
38 25 59
38 26 17
38 27 80
38 28 76
38 29 15
38 30 40
38 31 52
38 32 67
38 33 90
38 34 69
38 35 67
38 36 75
38 37 95
39 0 37
39 1 18
39 2 90
39 3 25
39 4 48
39 5 18
39 6 11
39 7 39
39 8 32
39 9 28
39 10 97
39 11 42
39 12 7
39 13 28
39 14 96
39 15 90
39 16 20
39 17 14
39 18 20
39 19 61
39 20 16
39 21 31
39 22 42
39 23 48
39 24 73
39 25 59
39 26 32
39 27 88
39 28 75
39 29 25
39 30 74
39 31 20
39 32 29
39 33 5
39 34 11
39 35 33
39 36 45
39 37 33
39 38 17
40 0 68
40 1 25
40 2 37
40 3 4
40 4 53
40 5 42
40 6 61
40 7 95
40 8 13
40 9 2
40 10 66
40 11 34
40 12 74
40 13 21
40 14 85
40 15 7
40 16 41
40 17 51
40 18 95
40 19 3
40 20 41
40 21 43
40 22 36
40 23 25
40 24 51
40 25 40
40 26 79
40 27 43
40 28 42
40 29 25
40 30 21
40 31 52
40 32 22
40 33 73
40 34 67
40 35 57
40 36 61
40 37 72
40 38 32
40 39 18
41 0 17
41 1 34
41 2 51
41 3 16
41 4 8
41 5 94
41 6 1
41 7 30
41 8 96
41 9 63
41 10 74
41 11 37
41 12 75
41 13 2
41 14 34
41 15 55
41 16 81
41 17 16
41 18 64
41 19 22
41 20 70
41 21 98
41 22 92
41 23 63
41 24 21
41 25 58
41 26 26
41 27 82
41 28 75
41 29 30
41 30 64
41 31 1
41 32 7
41 33 38
41 34 47
41 35 12
41 36 87
41 37 53
41 38 68
41 39 32
41 40 96
42 0 98
42 1 67
42 2 60
42 3 81
42 4 49
42 5 54
42 6 93
42 7 79
42 8 67
42 9 67
42 10 39
42 11 47
42 12 52
42 13 38
42 14 30
42 15 56
42 16 87
42 17 22
42 18 41
42 19 65
42 20 39
42 21 30
42 22 49
42 23 62
42 24 18
42 25 58
42 26 94
42 27 46
42 28 19
42 29 100
42 30 36
42 31 91
42 32 86
42 33 91
42 34 8
42 35 4
42 36 90
42 37 31
42 38 5
42 39 80
42 40 2
42 41 63
43 0 79
43 1 7
43 2 96
43 3 17
43 4 10
43 5 86
43 6 25
43 7 53
43 8 79
43 9 51
43 10 47
43 11 46
43 12 77
43 13 22
43 14 1
43 15 4
43 16 96
43 17 15
43 18 48
43 19 22
43 20 15
43 21 92
43 22 40
43 23 2
43 24 68
43 25 37
43 26 80
43 27 83
43 28 41
43 29 76
43 30 73
43 31 84
43 32 63
43 33 77
43 34 97
43 35 46
43 36 72
43 37 20
43 38 41
43 39 3
43 40 59
43 41 95
43 42 77
44 0 56
44 1 50
44 2 80
44 3 75
44 4 6
44 5 60
44 6 15
44 7 79
44 8 66
44 9 25
44 10 59
44 11 97
44 12 81
44 13 16
44 14 10
44 15 66
44 16 4
44 17 67
44 18 8
44 19 15
44 20 17
44 21 89
44 22 70
44 23 25
44 24 90
44 25 44
44 26 17
44 27 49
44 28 26
44 29 7
44 30 91
44 31 59
44 32 29
44 33 25
44 34 71
44 35 31
44 36 84
44 37 72
44 38 46
44 39 71
44 40 55
44 41 48
44 42 94
44 43 53
45 0 30
45 1 61
45 2 77
45 3 23
45 4 60
45 5 14
45 6 55
45 7 87
45 8 87
45 9 68
45 10 70
45 11 89
45 12 57
45 13 51
45 14 71
45 15 42
45 16 43
45 17 48
45 18 55
45 19 75
45 20 45
45 21 91
45 22 67
45 23 4
45 24 44
45 25 8
45 26 79
45 27 44
45 28 1
45 29 35
45 30 31
45 31 12
45 32 59
45 33 83
45 34 14
45 35 100
45 36 69
45 37 15
45 38 26
45 39 10
45 40 53
45 41 71
45 42 32
45 43 79
45 44 83
46 0 51
46 1 2
46 2 41
46 3 26
46 4 54
46 5 16
46 6 100
46 7 88
46 8 9
46 9 61
46 10 15
46 11 68
46 12 70
46 13 46
46 14 20
46 15 90
46 16 42
46 17 24
46 18 22
46 19 77
46 20 77
46 21 2
46 22 58
46 23 1
46 24 45
46 25 48
46 26 13
46 27 93
46 28 68
46 29 61
46 30 10
46 31 27
46 32 86
46 33 47
46 34 30
46 35 94
46 36 76
46 37 8
46 38 39
46 39 36
46 40 54
46 41 63
46 42 8
46 43 6
46 44 26
46 45 28
47 0 65
47 1 73
47 2 76
47 3 43
47 4 14
47 5 86
47 6 88
47 7 24
47 8 9
47 9 65
47 10 62
47 11 62
47 12 67
47 13 3
47 14 65
47 15 15
47 16 57
47 17 58
47 18 13
47 19 54
47 20 1
47 21 2
47 22 90
47 23 59
47 24 74
47 25 50
47 26 52
47 27 89
47 28 94
47 29 69
47 30 58
47 31 51
47 32 25
47 33 62
47 34 31
47 35 58
47 36 46
47 37 65
47 38 57
47 39 50
47 40 59
47 41 100
47 42 48
47 43 6
47 44 32
47 45 77
47 46 48
48 0 85
48 1 1
48 2 49
48 3 47
48 4 66
48 5 89
48 6 30
48 7 37
48 8 81
48 9 97
48 10 68
48 11 27
48 12 50
48 13 89
48 14 12
48 15 92
48 16 73
48 17 73
48 18 14
48 19 31
48 20 36
48 21 44
48 22 68
48 23 59
48 24 34
48 25 50
48 26 63
48 27 52
48 28 13
48 29 91
48 30 9
48 31 23
48 32 91
48 33 66
48 34 65
48 35 7
48 36 19
48 37 17
48 38 76
48 39 62
48 40 63
48 41 56
48 42 92
48 43 36
48 44 46
48 45 57
48 46 33
48 47 47
49 0 74
49 1 46
49 2 24
49 3 72
49 4 28
49 5 39
49 6 11
49 7 46
49 8 97
49 9 97
49 10 25
49 11 25
49 12 95
49 13 99
49 14 73
49 15 57
49 16 74
49 17 60
49 18 56
49 19 48
49 20 27
49 21 35
49 22 46
49 23 55
49 24 61
49 25 94
49 26 83
49 27 12
49 28 53
49 29 49
49 30 61
49 31 73
49 32 50
49 33 85
49 34 19
49 35 56
49 36 58
49 37 10
49 38 60
49 39 82
49 40 25
49 41 29
49 42 57
49 43 67
49 44 41
49 45 14
49 46 21
49 47 16
49 48 81
50 0 18
50 1 45
50 2 10
50 3 75
50 4 63
50 5 42
50 6 94
50 7 85
50 8 88
50 9 46
50 10 3
50 11 16
50 12 45
50 13 42
50 14 91
50 15 1
50 16 77
50 17 42
50 18 43
50 19 19
50 20 26
50 21 28
50 22 92
50 23 54
50 24 33
50 25 23
50 26 61
50 27 1
50 28 45
50 29 71
50 30 9
50 31 61
50 32 40
50 33 21
50 34 53
50 35 8
50 36 27
50 37 57
50 38 83
50 39 95
50 40 94
50 41 26
50 42 17
50 43 39
50 44 92
50 45 38
50 46 31
50 47 21
50 48 96
50 49 49
51 0 79
51 1 59
51 2 82
51 3 59
51 4 94
51 5 64
51 6 92
51 7 71
51 8 21
51 9 79
51 10 90
51 11 98
51 12 29
51 13 54
51 14 33
51 15 28
51 16 97
51 17 26
51 18 4
51 19 62
51 20 93
51 21 89
51 22 83
51 23 94
51 24 57
51 25 75
51 26 47
51 27 9
51 28 80
51 29 91
51 30 42
51 31 96
51 32 46
51 33 74
51 34 45
51 35 25
51 36 47
51 37 69
51 38 26
51 39 19
51 40 27
51 41 25
51 42 77
51 43 23
51 44 87
51 45 78
51 46 51
51 47 56
51 48 70
51 49 69
51 50 60
52 0 99
52 1 2
52 2 95
52 3 82
52 4 43
52 5 64
52 6 19
52 7 20
52 8 10
52 9 16
52 10 68
52 11 84
52 12 30
52 13 98
52 14 97
52 15 92
52 16 10
52 17 87
52 18 5
52 19 32
52 20 53
52 21 66
52 22 24
52 23 2
52 24 5
52 25 63
52 26 27
52 27 38
52 28 34
52 29 39
52 30 10
52 31 91
52 32 70
52 33 40
52 34 56
52 35 21
52 36 71
52 37 58
52 38 93
52 39 7
52 40 79
52 41 50
52 42 77
52 43 97
52 44 81
52 45 4
52 46 90
52 47 49
52 48 7
52 49 68
52 50 25
52 51 27
53 0 13
53 1 77
53 2 88
53 3 76
53 4 35
53 5 38
53 6 55
53 7 63
53 8 14
53 9 57
53 10 47
53 11 65
53 12 29
53 13 22
53 14 31
53 15 62
53 16 81
53 17 81
53 18 44
53 19 38
53 20 29
53 21 70
53 22 100
53 23 9
53 24 52
53 25 87
53 26 34
53 27 34
53 28 3
53 29 5
53 30 87
53 31 86
53 32 82
53 33 86
53 34 45
53 35 58
53 36 19
53 37 39
53 38 68
53 39 66
53 40 71
53 41 3
53 42 92
53 43 62
53 44 71
53 45 96
53 46 75
53 47 53
53 48 64
53 49 30
53 50 30
53 51 15
53 52 34
54 0 77
54 1 68
54 2 32
54 3 8
54 4 64
54 5 19
54 6 100
54 7 75
54 8 12
54 9 44
54 10 83
54 11 83
54 12 52
54 13 29
54 14 1
54 15 74
54 16 76
54 17 20
54 18 98
54 19 85
54 20 20
54 21 62
54 22 14
54 23 24
54 24 81
54 25 37
54 26 56
54 27 92
54 28 8
54 29 12
54 30 51
54 31 28
54 32 27
54 33 49
54 34 12
54 35 68
54 36 89
54 37 36
54 38 69
54 39 75
54 40 47
54 41 37
54 42 33
54 43 61
54 44 3
54 45 74
54 46 90
54 47 21
54 48 88
54 49 94
54 50 58
54 51 39
54 52 56
54 53 69
55 0 46
55 1 40
55 2 3
55 3 46
55 4 99
55 5 11
55 6 54
55 7 42
55 8 13
55 9 87
55 10 75
55 11 44
55 12 64
55 13 99
55 14 93
55 15 68
55 16 78
55 17 25
55 18 44
55 19 83
55 20 33
55 21 83
55 22 78
55 23 2
55 24 84
55 25 66
55 26 80
55 27 1
55 28 37
55 29 1
55 30 9
55 31 13
55 32 16
55 33 83
55 34 45
55 35 6
55 36 6
55 37 28
55 38 94
55 39 59
55 40 63
55 41 25
55 42 11
55 43 71
55 44 16
55 45 99
55 46 23
55 47 77
55 48 17
55 49 6
55 50 65
55 51 67
55 52 99
55 53 21
55 54 69
56 0 15
56 1 56
56 2 3
56 3 63
56 4 68
56 5 59
56 6 25
56 7 62
56 8 69
56 9 58
56 10 24
56 11 79
56 12 83
56 13 48
56 14 4
56 15 73
56 16 75
56 17 95
56 18 84
56 19 3
56 20 61
56 21 47
56 22 94
56 23 83
56 24 100
56 25 72
56 26 49
56 27 30
56 28 34
56 29 12
56 30 47
56 31 63
56 32 82
56 33 34
56 34 94
56 35 96
56 36 27
56 37 19
56 38 32
56 39 25
56 40 80
56 41 18
56 42 26
56 43 11
56 44 95
56 45 73
56 46 43
56 47 99
56 48 67
56 49 80
56 50 21
56 51 38
56 52 45
56 53 28
56 54 27
56 55 77
57 0 34
57 1 63
57 2 24
57 3 66
57 4 77
57 5 53
57 6 20
57 7 77
57 8 36
57 9 41
57 10 65
57 11 28
57 12 6
57 13 24
57 14 8
57 15 80
57 16 47
57 17 100
57 18 40
57 19 21
57 20 8
57 21 58
57 22 84
57 23 87
57 24 69
57 25 4
57 26 5
57 27 60
57 28 48
57 29 63
57 30 47
57 31 47
57 32 32
57 33 86
57 34 35
57 35 40
57 36 29
57 37 49
57 38 82
57 39 3
57 40 59
57 41 35
57 42 98
57 43 36
57 44 22
57 45 37
57 46 89
57 47 14
57 48 22
57 49 4
57 50 93
57 51 2
57 52 21
57 53 38
57 54 93
57 55 92
57 56 60
58 0 8
58 1 1
58 2 14
58 3 76
58 4 32
58 5 1
58 6 13
58 7 90
58 8 54
58 9 4
58 10 8
58 11 53
58 12 8
58 13 43
58 14 49
58 15 75
58 16 53
58 17 16
58 18 68
58 19 69
58 20 13
58 21 55
58 22 68
58 23 93
58 24 66
58 25 76
58 26 5
58 27 58
58 28 57
58 29 48
58 30 58
58 31 56
58 32 33
58 33 64
58 34 84
58 35 9
58 36 28
58 37 25
58 38 19
58 39 38
58 40 37
58 41 67
58 42 48
58 43 33
58 44 66
58 45 76
58 46 78
58 47 41
58 48 47
58 49 78
58 50 79
58 51 11
58 52 43
58 53 20
58 54 71
58 55 79
58 56 98
58 57 43
59 0 72
59 1 62
59 2 100
59 3 37
59 4 52
59 5 3
59 6 54
59 7 30
59 8 37
59 9 91
59 10 98
59 11 33
59 12 66
59 13 32
59 14 1
59 15 64
59 16 4
59 17 66
59 18 22
59 19 3
59 20 47
59 21 37
59 22 27
59 23 71
59 24 80
59 25 70
59 26 92
59 27 22
59 28 83
59 29 21
59 30 33
59 31 92
59 32 86
59 33 80
59 34 41
59 35 42
59 36 8
59 37 62
59 38 27
59 39 6
59 40 58
59 41 20
59 42 88
59 43 10
59 44 58
59 45 45
59 46 53
59 47 25
59 48 30
59 49 50
59 50 81
59 51 90
59 52 51
59 53 55
59 54 3
59 55 94
59 56 69
59 57 19
59 58 44
